Welcome to the CBC MILP Solver 
Version: Trunk
Build Date: Apr 16 2020 

Starting solution of the Linear programming relaxation problem using Primal Simplex

Using Python-MIP package version 1.8.1
Machines:  3 Jobs:  3
Order: 
Job  0 : machine 1 ( 7 ) machine 2 ( 7 ) machine 0 ( 1 ) 
Job  1 : machine 1 ( 4 ) machine 0 ( 3 ) machine 2 ( 7 ) 
Job  2 : machine 1 ( 7 ) machine 2 ( 6 ) machine 0 ( 2 ) 
K:  33
Job  0 , e: machine  0 ( 14 ) machine  1 ( 0 ) machine  2 ( 7 ) 
Job  1 , e: machine  0 ( 4 ) machine  1 ( 0 ) machine  2 ( 7 ) 
Job  2 , e: machine  0 ( 13 ) machine  1 ( 0 ) machine  2 ( 7 ) 
Job  0 , f: machine  0 ( 0 ) machine  1 ( 8 ) machine  2 ( 1 ) 
Job  1 , f: machine  0 ( 7 ) machine  1 ( 10 ) machine  2 ( 0 ) 
Job  2 , f: machine  0 ( 0 ) machine  1 ( 8 ) machine  2 ( 2 ) 
EST and LST:
Job: 0 Machine: 0 EST: 14 LST: 32
Job: 0 Machine: 1 EST: 0 LST: 18
Job: 0 Machine: 2 EST: 7 LST: 25
Job: 1 Machine: 0 EST: 4 LST: 23
Job: 1 Machine: 1 EST: 0 LST: 19
Job: 1 Machine: 2 EST: 7 LST: 26
Job: 2 Machine: 0 EST: 13 LST: 31
Job: 2 Machine: 1 EST: 0 LST: 18
Job: 2 Machine: 2 EST: 7 LST: 25
Order:
Job: 0 Machine: 0 = 2 
Job: 0 Machine: 1 = 0 
Job: 0 Machine: 2 = 1 
Job: 1 Machine: 0 = 1 
Job: 1 Machine: 1 = 0 
Job: 1 Machine: 2 = 2 
Job: 2 Machine: 0 = 2 
Job: 2 Machine: 1 = 0 
Job: 2 Machine: 2 = 1 
Distances:
Job 0, Machine 1 -> Machine 2: distance 7
Job 0, Machine 1 -> Machine 0: distance 14
Job 0, Machine 2 -> Machine 0: distance 7
Job 1, Machine 1 -> Machine 0: distance 4
Job 1, Machine 1 -> Machine 2: distance 7
Job 1, Machine 0 -> Machine 2: distance 3
Job 2, Machine 1 -> Machine 2: distance 7
Job 2, Machine 1 -> Machine 0: distance 13
Job 2, Machine 2 -> Machine 0: distance 6
McCormic linearization
14.0 13.0 2
0.0 0.0 4
0.0 0.0 7
0.0 0.0 7
7.0 7.0 7
7.0 7.0 6
[(0, 1), (0, 0), (0, 2), (2, 1), (2, 0), (1, 1)]
obj:  0.0
solutions:  1
+ 0.14285714285714285x(0,1) + 0.14285714285714285x(2,1) 
C:  18.5
x(0,0) = 17.50	 x(0,1) = 3.50	 x(0,2) = 10.50	 
x(1,0) = 8.50	 x(1,1) = 4.50	 x(1,2) = 11.50	 
x(2,0) = 16.50	 x(2,1) = 3.50	 x(2,2) = 10.50	 
y(0,1,0) = 0.00	 y(1,0,0) = 1.00	 
y(0,2,0) = 0.90	 y(2,0,0) = 0.10	 
y(1,2,0) = 0.59	 y(2,1,0) = 0.41	 
y(0,1,1) = 0.22	 y(1,0,1) = 0.78	 
y(0,2,1) = 0.50	 y(2,0,1) = 0.50	 
y(1,2,1) = 0.36	 y(2,1,1) = 0.64	 
y(0,1,2) = 0.50	 y(1,0,2) = 0.50	 
y(0,2,2) = 0.42	 y(2,0,2) = 0.58	 
y(1,2,2) = 0.50	 y(2,1,2) = 0.50	 
17.500000000000004 16.5 2
3.500000000000003 3.4999999999999973 7
4.499999999999999 3.4999999999999973 7
11.5 10.499999999999998 6
obj:  0.6380952380952382
solutions:  1
+ 0.06666666666666668x(0,1) + 0.06666666666666668x(2,1) + 0.038095238095238085x(1,1) 
[(0, 1), (0, 0), (0, 2), (2, 1), (2, 0), (1, 1)]
cliques:  1 mip: 20
C:  20.983660130718953
x(0,0) = 19.87	 x(0,1) = 5.87	 x(0,2) = 12.87	 
x(1,0) = 9.51	 x(1,1) = 5.51	 x(1,2) = 12.51	 
x(2,0) = 18.98	 x(2,1) = 5.98	 x(2,2) = 12.98	 
y(0,1,0) = 0.00	 y(1,0,0) = 1.00	 
y(0,2,0) = 0.06	 y(2,0,0) = 0.94	 
y(1,2,0) = 0.62	 y(2,1,0) = 0.38	 
y(0,1,1) = 0.71	 y(1,0,1) = 0.29	 
y(0,2,1) = 0.31	 y(2,0,1) = 0.69	 
y(1,2,1) = 0.30	 y(2,1,1) = 0.70	 
y(0,1,2) = 0.31	 y(1,0,2) = 0.69	 
y(0,2,2) = 0.25	 y(2,0,2) = 0.75	 
y(1,2,2) = 0.71	 y(2,1,2) = 0.29	 
19.86601307189542 18.983660130718967 2
5.86601307189541 5.513071895424835 4
12.866013071895411 12.513071895424831 7
obj:  0.9999999999999998
erro
[(0, 1), (0, 0), (0, 2), (2, 1), (2, 0), (1, 1)]
cliques:  0 mip: 52
C:  22.463941299790356
x(0,0) = 21.46	 x(0,1) = 7.46	 x(0,2) = 14.46	 
x(1,0) = 7.61	 x(1,1) = 3.56	 x(1,2) = 10.61	 
x(2,0) = 18.50	 x(2,1) = 5.50	 x(2,2) = 12.50	 
y(0,1,0) = 0.00	 y(1,0,0) = 1.00	 
y(0,2,0) = 0.00	 y(2,0,0) = 1.00	 
y(1,2,0) = 0.67	 y(2,1,0) = 0.33	 
y(0,1,1) = 0.02	 y(1,0,1) = 0.98	 
y(0,2,1) = 0.64	 y(2,0,1) = 0.36	 
y(1,2,1) = 0.74	 y(2,1,1) = 0.26	 
y(0,1,2) = 0.12	 y(1,0,2) = 0.88	 
y(0,2,2) = 0.64	 y(2,0,2) = 0.36	 
y(1,2,2) = 0.78	 y(2,1,2) = 0.22	 
7.463941299790349 3.560167714884686 4
7.463941299790349 5.501677148846971 7
14.463941299790354 10.61481281820905 7
14.463941299790354 12.501677148846982 6
obj:  0.9178071125240945
solutions:  1
+ 0.025641025641025657x(1,2) + 0.021978021978021987x(2,2) + 0.025641025641025637x(0,2) 
[(0, 1), (1, 2), (2, 1), (1, 1), (2, 2), (0, 2)]
cliques:  1 mip: 47
C:  23.40781753151716
x(0,0) = 22.41	 x(0,1) = 4.37	 x(0,2) = 11.37	 
x(1,0) = 11.94	 x(1,1) = 7.94	 x(1,2) = 16.41	 
x(2,0) = 19.09	 x(2,1) = 6.09	 x(2,2) = 13.09	 
y(0,1,0) = 0.00	 y(1,0,0) = 1.00	 
y(0,2,0) = 0.00	 y(2,0,0) = 1.00	 
y(1,2,0) = 0.93	 y(2,1,0) = 0.07	 
y(0,1,1) = 0.71	 y(1,0,1) = 0.29	 
y(0,2,1) = 0.58	 y(2,0,1) = 0.42	 
y(1,2,1) = 0.73	 y(2,1,1) = 0.27	 
y(0,1,2) = 0.47	 y(1,0,2) = 0.53	 
y(0,2,2) = 0.58	 y(2,0,2) = 0.42	 
y(1,2,2) = 0.42	 y(2,1,2) = 0.58	 
7.94131875203496 6.089447712480427 7
16.407817531517157 13.089447712480426 6
obj:  1.0000000000000002
erro
[(0, 1), (1, 2), (2, 1), (1, 1), (2, 2), (0, 2)]
cliques:  0 mip: 54
C:  24.000000000000004
x(0,0) = 23.00	 x(0,1) = 3.32	 x(0,2) = 10.32	 
x(1,0) = 13.02	 x(1,1) = 9.02	 x(1,2) = 17.00	 
x(2,0) = 21.00	 x(2,1) = 7.24	 x(2,2) = 14.97	 
y(0,1,0) = 0.00	 y(1,0,0) = 1.00	 
y(0,2,0) = 0.00	 y(2,0,0) = 1.00	 
y(1,2,0) = 0.90	 y(2,1,0) = 0.10	 
y(0,1,1) = 0.95	 y(1,0,1) = 0.05	 
y(0,2,1) = 0.81	 y(2,0,1) = 0.19	 
y(1,2,1) = 0.75	 y(2,1,1) = 0.25	 
y(0,1,2) = 0.53	 y(1,0,2) = 0.47	 
y(0,2,2) = 0.81	 y(2,0,2) = 0.19	 
y(1,2,2) = 0.43	 y(2,1,2) = 0.57	 
9.019970917941539 7.239345732505446 7
17.000000000000004 14.967713401149934 6
obj:  1.029365592390803
erro
[(0, 1), (1, 2), (2, 1), (1, 1), (2, 2), (0, 2)]
cliques:  0 mip: 36
C:  24.000000000000004
x(0,0) = 23.00	 x(0,1) = 3.29	 x(0,2) = 11.11	 
x(1,0) = 13.92	 x(1,1) = 9.92	 x(1,2) = 17.00	 
x(2,0) = 20.26	 x(2,1) = 6.93	 x(2,2) = 14.25	 
y(0,1,0) = 0.00	 y(1,0,0) = 1.00	 
y(0,2,0) = 0.00	 y(2,0,0) = 1.00	 
y(1,2,0) = 0.92	 y(2,1,0) = 0.08	 
y(0,1,1) = 0.99	 y(1,0,1) = 0.01	 
y(0,2,1) = 0.79	 y(2,0,1) = 0.21	 
y(1,2,1) = 0.70	 y(2,1,1) = 0.30	 
y(0,1,2) = 0.78	 y(1,0,2) = 0.22	 
y(0,2,2) = 0.70	 y(2,0,2) = 0.30	 
y(1,2,2) = 0.32	 y(2,1,2) = 0.68	 
9.91975648941641 6.930327880644245 7
17.0 14.247789917295473 6
obj:  1.033822586960913
erro
[(0, 1), (1, 2), (2, 1), (1, 1), (2, 2), (0, 2)]
cliques:  0 mip: 41
C:  24.0
x(0,0) = 23.00	 x(0,1) = 7.58	 x(0,2) = 14.70	 
x(1,0) = 10.28	 x(1,1) = 6.28	 x(1,2) = 17.00	 
x(2,0) = 20.13	 x(2,1) = 4.24	 x(2,2) = 11.24	 
y(0,1,0) = 0.00	 y(1,0,0) = 1.00	 
y(0,2,0) = 0.00	 y(2,0,0) = 1.00	 
y(1,2,0) = 0.86	 y(2,1,0) = 0.14	 
y(0,1,1) = 0.26	 y(1,0,1) = 0.74	 
y(0,2,1) = 0.20	 y(2,0,1) = 0.80	 
y(1,2,1) = 0.64	 y(2,1,1) = 0.36	 
y(0,1,2) = 0.55	 y(1,0,2) = 0.45	 
y(0,2,2) = 0.19	 y(2,0,2) = 0.81	 
y(1,2,2) = 0.04	 y(2,1,2) = 0.96	 
7.579866445446945 6.284091684541536 4
7.579866445446945 4.237485839632749 7
6.284091684541536 4.237485839632749 7
14.701286072848283 11.237485839632749 6
17.0 11.237485839632749 6
obj:  1.0272174546068953
erro
[(0, 1), (1, 2), (2, 1), (1, 1), (2, 2), (0, 2)]
cliques:  0 mip: 42
C:  24.0
x(0,0) = 23.00	 x(0,1) = 4.80	 x(0,2) = 12.21	 
x(1,0) = 11.94	 x(1,1) = 7.94	 x(1,2) = 17.00	 
x(2,0) = 21.00	 x(2,1) = 5.66	 x(2,2) = 13.31	 
y(0,1,0) = 0.00	 y(1,0,0) = 1.00	 
y(0,2,0) = 0.00	 y(2,0,0) = 1.00	 
y(1,2,0) = 0.62	 y(2,1,0) = 0.38	 
y(0,1,1) = 0.59	 y(1,0,1) = 0.41	 
y(0,2,1) = 0.31	 y(2,0,1) = 0.69	 
y(1,2,1) = 0.64	 y(2,1,1) = 0.36	 
y(0,1,2) = 0.73	 y(1,0,2) = 0.27	 
y(0,2,2) = 0.54	 y(2,0,2) = 0.46	 
y(1,2,2) = 0.15	 y(2,1,2) = 0.85	 
7.944631498178784 5.662162754949708 7
17.0 13.309301612112884 6
obj:  1.0
erro
[(0, 1), (1, 2), (2, 1), (1, 1), (2, 2), (0, 2)]
cliques:  0 mip: 38
C:  24.0
x(0,0) = 23.00	 x(0,1) = 2.55	 x(0,2) = 10.13	 
x(1,0) = 13.04	 x(1,1) = 9.04	 x(1,2) = 16.87	 
x(2,0) = 21.00	 x(2,1) = 7.29	 x(2,2) = 14.29	 
y(0,1,0) = 0.00	 y(1,0,0) = 1.00	 
y(0,2,0) = 0.00	 y(2,0,0) = 1.00	 
y(1,2,0) = 0.86	 y(2,1,0) = 0.14	 
y(0,1,1) = 0.90	 y(1,0,1) = 0.10	 
y(0,2,1) = 0.74	 y(2,0,1) = 0.26	 
y(1,2,1) = 0.75	 y(2,1,1) = 0.25	 
y(0,1,2) = 0.82	 y(1,0,2) = 0.18	 
y(0,2,2) = 0.84	 y(2,0,2) = 0.16	 
y(1,2,2) = 0.63	 y(2,1,2) = 0.37	 
9.035007273241394 7.292003958710426 7
16.870618079220236 14.292003958710428 6
obj:  1.0000000000000002
erro
[(0, 1), (1, 2), (2, 1), (1, 1), (2, 2), (0, 2)]
cliques:  0 mip: 38
C:  24.0
x(0,0) = 23.00	 x(0,1) = 7.03	 x(0,2) = 14.03	 
x(1,0) = 9.55	 x(1,1) = 5.55	 x(1,2) = 17.00	 
x(2,0) = 18.06	 x(2,1) = 4.80	 x(2,2) = 12.06	 
y(0,1,0) = 0.00	 y(1,0,0) = 1.00	 
y(0,2,0) = 0.00	 y(2,0,0) = 1.00	 
y(1,2,0) = 0.95	 y(2,1,0) = 0.05	 
y(0,1,1) = 0.11	 y(1,0,1) = 0.89	 
y(0,2,1) = 0.27	 y(2,0,1) = 0.73	 
y(1,2,1) = 0.50	 y(2,1,1) = 0.50	 
y(0,1,2) = 0.65	 y(1,0,2) = 0.35	 
y(0,2,2) = 0.28	 y(2,0,2) = 0.72	 
y(1,2,2) = 0.19	 y(2,1,2) = 0.81	 
7.032728415588382 5.546464329003226 4
7.032728415588382 4.797863396409773 7
5.546464329003226 4.797863396409773 7
14.03272841558838 12.064633419389535 6
17.0 12.064633419389535 6
obj:  1.0
erro
[(0, 1), (1, 2), (2, 1), (1, 1), (2, 2), (0, 2)]
cliques:  0 mip: 42
C:  24.0
x(0,0) = 23.00	 x(0,1) = 6.80	 x(0,2) = 14.06	 
x(1,0) = 10.68	 x(1,1) = 6.68	 x(1,2) = 17.00	 
x(2,0) = 19.24	 x(2,1) = 4.90	 x(2,2) = 11.90	 
y(0,1,0) = 0.00	 y(1,0,0) = 1.00	 
y(0,2,0) = 0.00	 y(2,0,0) = 1.00	 
y(1,2,0) = 0.98	 y(2,1,0) = 0.02	 
y(0,1,1) = 0.34	 y(1,0,1) = 0.66	 
y(0,2,1) = 0.25	 y(2,0,1) = 0.75	 
y(1,2,1) = 0.50	 y(2,1,1) = 0.50	 
y(0,1,2) = 0.84	 y(1,0,2) = 0.16	 
y(0,2,2) = 0.28	 y(2,0,2) = 0.72	 
y(1,2,2) = 0.05	 y(2,1,2) = 0.95	 
6.795107901077068 6.683343064104407 4
6.795107901077068 4.904347565121818 7
6.683343064104407 4.904347565121818 7
14.057750367091705 11.904347565121812 6
17.0 11.904347565121812 6
obj:  1.034567243045808
erro
[(0, 1), (1, 2), (2, 1), (1, 1), (2, 2), (0, 2)]
cliques:  0 mip: 44
C:  24.0
x(0,0) = 23.00	 x(0,1) = 5.74	 x(0,2) = 13.50	 
x(1,0) = 11.70	 x(1,1) = 7.70	 x(1,2) = 16.57	 
x(2,0) = 18.42	 x(2,1) = 4.86	 x(2,2) = 12.42	 
y(0,1,0) = 0.00	 y(1,0,0) = 1.00	 
y(0,2,0) = 0.00	 y(2,0,0) = 1.00	 
y(1,2,0) = 0.89	 y(2,1,0) = 0.11	 
y(0,1,1) = 0.54	 y(1,0,1) = 0.46	 
y(0,2,1) = 0.34	 y(2,0,1) = 0.66	 
y(1,2,1) = 0.64	 y(2,1,1) = 0.36	 
y(0,1,2) = 0.83	 y(1,0,2) = 0.17	 
y(0,2,2) = 0.35	 y(2,0,2) = 0.65	 
y(1,2,2) = 0.08	 y(2,1,2) = 0.92	 
5.741687073745238 4.860249272124873 7
7.696611394727305 4.860249272124873 7
13.500284533635801 12.4156176963349 6
16.573864182874857 12.4156176963349 6
obj:  1.0
erro
[(0, 1), (1, 2), (2, 1), (1, 1), (2, 2), (0, 2)]
cliques:  0 mip: 45
C:  24.0
x(0,0) = 23.00	 x(0,1) = 7.60	 x(0,2) = 15.12	 
x(1,0) = 10.39	 x(1,1) = 6.39	 x(1,2) = 17.00	 
x(2,0) = 17.12	 x(2,1) = 4.12	 x(2,2) = 11.12	 
y(0,1,0) = 0.00	 y(1,0,0) = 1.00	 
y(0,2,0) = 0.00	 y(2,0,0) = 1.00	 
y(1,2,0) = 0.94	 y(2,1,0) = 0.06	 
y(0,1,1) = 0.28	 y(1,0,1) = 0.72	 
y(0,2,1) = 0.15	 y(2,0,1) = 0.85	 
y(1,2,1) = 0.71	 y(2,1,1) = 0.29	 
y(0,1,2) = 0.80	 y(1,0,2) = 0.20	 
y(0,2,2) = 0.11	 y(2,0,2) = 0.89	 
y(1,2,2) = 0.04	 y(2,1,2) = 0.96	 
7.6040320004313795 6.39497684323882 4
7.6040320004313795 4.115221940677025 7
6.39497684323882 4.115221940677025 7
15.119834411967474 11.115221940677026 6
17.0 11.115221940677026 6
obj:  1.0249017615306109
erro
[(0, 1), (1, 2), (2, 1), (1, 1), (2, 2), (0, 2)]
cliques:  0 mip: 43
C:  24.000000000000004
x(0,0) = 23.00	 x(0,1) = 4.04	 x(0,2) = 12.77	 
x(1,0) = 12.58	 x(1,1) = 8.58	 x(1,2) = 17.00	 
x(2,0) = 19.05	 x(2,1) = 6.05	 x(2,2) = 13.05	 
y(0,1,0) = 0.00	 y(1,0,0) = 1.00	 
y(0,2,0) = 0.00	 y(2,0,0) = 1.00	 
y(1,2,0) = 0.69	 y(2,1,0) = 0.31	 
y(0,1,1) = 0.72	 y(1,0,1) = 0.28	 
y(0,2,1) = 0.45	 y(2,0,1) = 0.55	 
y(1,2,1) = 0.72	 y(2,1,1) = 0.28	 
y(0,1,2) = 0.89	 y(1,0,2) = 0.11	 
y(0,2,2) = 0.46	 y(2,0,2) = 0.54	 
y(1,2,2) = 0.16	 y(2,1,2) = 0.84	 
8.580850675965047 6.052830371557425 7
17.000000000000004 13.052830371557476 6
obj:  1.0
erro
[(0, 1), (1, 2), (2, 1), (1, 1), (2, 2), (0, 2)]
cliques:  0 mip: 40
C:  24.000000000000004
x(0,0) = 23.00	 x(0,1) = 5.59	 x(0,2) = 12.59	 
x(1,0) = 9.63	 x(1,1) = 5.63	 x(1,2) = 17.00	 
x(2,0) = 19.19	 x(2,1) = 6.19	 x(2,2) = 13.19	 
y(0,1,0) = 0.00	 y(1,0,0) = 1.00	 
y(0,2,0) = 0.00	 y(2,0,0) = 1.00	 
y(1,2,0) = 0.56	 y(2,1,0) = 0.44	 
y(0,1,1) = 0.35	 y(1,0,1) = 0.65	 
y(0,2,1) = 0.35	 y(2,0,1) = 0.65	 
y(1,2,1) = 0.68	 y(2,1,1) = 0.32	 
y(0,1,2) = 0.90	 y(1,0,2) = 0.10	 
y(0,2,2) = 0.49	 y(2,0,2) = 0.51	 
y(1,2,2) = 0.11	 y(2,1,2) = 0.89	 
17.0 13.192115093319057 6
obj:  1.0
erro
[(0, 1), (1, 2), (2, 1), (1, 1), (2, 2), (0, 2)]
cliques:  0 mip: 41
C:  24.000000000000007
x(0,0) = 23.00	 x(0,1) = 7.10	 x(0,2) = 14.58	 
x(1,0) = 12.12	 x(1,1) = 6.13	 x(1,2) = 17.00	 
x(2,0) = 17.64	 x(2,1) = 4.40	 x(2,2) = 11.64	 
y(0,1,0) = 0.00	 y(1,0,0) = 1.00	 
y(0,2,0) = 0.00	 y(2,0,0) = 1.00	 
y(1,2,0) = 0.42	 y(2,1,0) = 0.58	 
y(0,1,1) = 0.31	 y(1,0,1) = 0.69	 
y(0,2,1) = 0.23	 y(2,0,1) = 0.77	 
y(1,2,1) = 0.49	 y(2,1,1) = 0.51	 
y(0,1,2) = 0.55	 y(1,0,2) = 0.45	 
y(0,2,2) = 0.20	 y(2,0,2) = 0.80	 
y(1,2,2) = 0.03	 y(2,1,2) = 0.97	 
7.102110023951716 6.1293088200977675 4
7.102110023951716 4.398788788684481 7
6.1293088200977675 4.398788788684481 7
14.576027200976585 11.639798278935618 6
17.000000000000007 11.639798278935618 6
obj:  1.0002240663699473
erro
[(0, 1), (1, 2), (2, 1), (1, 1), (2, 2), (0, 2)]
cliques:  0 mip: 44
C:  24.000000000000007
x(0,0) = 23.00	 x(0,1) = 7.96	 x(0,2) = 15.16	 
x(1,0) = 14.00	 x(1,1) = 6.09	 x(1,2) = 17.00	 
x(2,0) = 16.56	 x(2,1) = 3.56	 x(2,2) = 10.56	 
y(0,1,0) = 0.00	 y(1,0,0) = 1.00	 
y(0,2,0) = 0.00	 y(2,0,0) = 1.00	 
y(1,2,0) = 0.34	 y(2,1,0) = 0.66	 
y(0,1,1) = 0.22	 y(1,0,1) = 0.78	 
y(0,2,1) = 0.13	 y(2,0,1) = 0.87	 
y(1,2,1) = 0.51	 y(2,1,1) = 0.49	 
y(0,1,2) = 0.52	 y(1,0,2) = 0.48	 
y(0,2,2) = 0.12	 y(2,0,2) = 0.88	 
y(1,2,2) = 0.06	 y(2,1,2) = 0.94	 
7.957331363406566 6.0944713287929275 4
7.957331363406566 3.5601135915689017 7
6.0944713287929275 3.5601135915689017 7
obj:  1.0
erro
[(0, 1), (0, 2), (2, 1), (2, 0), (1, 0), (1, 1)]
cliques:  0 mip: 39
C:  24.000000000000007
x(0,0) = 23.00	 x(0,1) = 8.14	 x(0,2) = 15.24	 
x(1,0) = 14.00	 x(1,1) = 4.98	 x(1,2) = 17.00	 
x(2,0) = 17.05	 x(2,1) = 4.02	 x(2,2) = 11.05	 
y(0,1,0) = 0.00	 y(1,0,0) = 1.00	 
y(0,2,0) = 0.00	 y(2,0,0) = 1.00	 
y(1,2,0) = 0.25	 y(2,1,0) = 0.75	 
y(0,1,1) = 0.14	 y(1,0,1) = 0.86	 
y(0,2,1) = 0.12	 y(2,0,1) = 0.88	 
y(1,2,1) = 0.78	 y(2,1,1) = 0.22	 
y(0,1,2) = 0.52	 y(1,0,2) = 0.48	 
y(0,2,2) = 0.10	 y(2,0,2) = 0.90	 
y(1,2,2) = 0.25	 y(2,1,2) = 0.75	 
8.136327599355734 4.976122635184023 4
8.136327599355734 4.020173751967679 7
4.976122635184023 4.020173751967679 7
15.240809601955226 11.04790382546772 6
17.000000000000007 11.04790382546772 6
obj:  0.9999999999999999
erro
[(0, 1), (1, 2), (2, 1), (1, 1), (2, 2), (0, 2)]
cliques:  0 mip: 39
C:  24.0
x(0,0) = 21.30	 x(0,1) = 5.27	 x(0,2) = 12.49	 
x(1,0) = 14.00	 x(1,1) = 6.06	 x(1,2) = 17.00	 
x(2,0) = 19.27	 x(2,1) = 6.27	 x(2,2) = 13.27	 
y(0,1,0) = 0.00	 y(1,0,0) = 1.00	 
y(0,2,0) = 0.85	 y(2,0,0) = 0.15	 
y(1,2,0) = 1.00	 y(2,1,0) = -0.00	 
y(0,1,1) = 0.24	 y(1,0,1) = 0.76	 
y(0,2,1) = 0.53	 y(2,0,1) = 0.47	 
y(1,2,1) = 0.78	 y(2,1,1) = 0.22	 
y(0,1,2) = 0.90	 y(1,0,2) = 0.10	 
y(0,2,2) = 0.50	 y(2,0,2) = 0.50	 
y(1,2,2) = 0.09	 y(2,1,2) = 0.91	 
17.000000000000004 13.273076185807152 6
obj:  1.0000000000000002
erro
[(0, 1), (1, 2), (2, 1), (1, 1), (2, 2), (0, 2)]
cliques:  0 mip: 46
C:  24.025093566969794
x(0,0) = 20.89	 x(0,1) = 6.13	 x(0,2) = 13.89	 
x(1,0) = 13.31	 x(1,1) = 6.38	 x(1,2) = 16.31	 
x(2,0) = 18.22	 x(2,1) = 5.22	 x(2,2) = 12.22	 
y(0,1,0) = 0.00	 y(1,0,0) = 1.00	 
y(0,2,0) = 0.71	 y(2,0,0) = 0.29	 
y(1,2,0) = 0.97	 y(2,1,0) = 0.03	 
y(0,1,1) = 0.27	 y(1,0,1) = 0.73	 
y(0,2,1) = 0.39	 y(2,0,1) = 0.61	 
y(1,2,1) = 0.78	 y(2,1,1) = 0.22	 
y(0,1,2) = 0.63	 y(1,0,2) = 0.37	 
y(0,2,2) = 0.31	 y(2,0,2) = 0.69	 
y(1,2,2) = 0.08	 y(2,1,2) = 0.92	 
6.134621845154633 5.222380493873125 7
6.375245906701425 5.222380493873125 7
13.888178554679923 12.222380493873125 6
16.310587886515965 12.222380493873125 6
obj:  1.0000000000000004
erro
[(0, 1), (1, 2), (2, 1), (1, 1), (2, 2), (0, 2)]
cliques:  0 mip: 61
C:  25.0
x(0,0) = 22.00	 x(0,1) = 4.00	 x(0,2) = 11.00	 
x(1,0) = 15.00	 x(1,1) = 11.00	 x(1,2) = 18.00	 
x(2,0) = 23.00	 x(2,1) = 8.05	 x(2,2) = 16.13	 
y(0,1,0) = 0.00	 y(1,0,0) = 1.00	 
y(0,2,0) = 1.00	 y(2,0,0) = 0.00	 
y(1,2,0) = 0.80	 y(2,1,0) = 0.20	 
y(0,1,1) = 1.00	 y(1,0,1) = -0.00	 
y(0,2,1) = 0.61	 y(2,0,1) = 0.39	 
y(1,2,1) = 0.70	 y(2,1,1) = 0.30	 
y(0,1,2) = 0.76	 y(1,0,2) = 0.24	 
y(0,2,2) = 0.86	 y(2,0,2) = 0.14	 
y(1,2,2) = 0.66	 y(2,1,2) = 0.34	 
11.000000000000073 8.045149340125118 7
17.999999999999996 16.126050420168323 6
obj:  1.3064383648196083
erro
[(0, 1), (0, 0), (2, 1), (2, 0), (2, 2), (0, 2)]
cliques:  0 mip: 25
C:  25.0
x(0,0) = 24.00	 x(0,1) = 4.28	 x(0,2) = 11.28	 
x(1,0) = 12.42	 x(1,1) = 8.42	 x(1,2) = 18.00	 
x(2,0) = 22.00	 x(2,1) = 6.69	 x(2,2) = 16.00	 
y(0,1,0) = 0.00	 y(1,0,0) = 1.00	 
y(0,2,0) = 0.00	 y(2,0,0) = 1.00	 
y(1,2,0) = 0.83	 y(2,1,0) = 0.17	 
y(0,1,1) = 0.48	 y(1,0,1) = 0.52	 
y(0,2,1) = 0.57	 y(2,0,1) = 0.43	 
y(1,2,1) = 0.47	 y(2,1,1) = 0.53	 
y(0,1,2) = 0.75	 y(1,0,2) = 0.25	 
y(0,2,2) = 0.82	 y(2,0,2) = 0.18	 
y(1,2,2) = 0.65	 y(2,1,2) = 0.35	 
23.999999999999996 22.0 2
8.42252352247956 6.687849682849926 7
17.999999999999996 15.999999999999996 6
obj:  1.0519710947313416
erro
[(0, 1), (0, 0), (0, 2), (2, 1), (2, 0), (1, 1)]
cliques:  0 mip: 36
C:  25.0
x(0,0) = 24.00	 x(0,1) = 6.32	 x(0,2) = 13.32	 
x(1,0) = 12.76	 x(1,1) = 8.76	 x(1,2) = 17.50	 
x(2,0) = 22.00	 x(2,1) = 4.04	 x(2,2) = 11.04	 
y(0,1,0) = 0.00	 y(1,0,0) = 1.00	 
y(0,2,0) = -0.00	 y(2,0,0) = 1.00	 
y(1,2,0) = 0.88	 y(2,1,0) = 0.12	 
y(0,1,1) = 0.55	 y(1,0,1) = 0.45	 
y(0,2,1) = 0.53	 y(2,0,1) = 0.47	 
y(1,2,1) = 0.09	 y(2,1,1) = 0.91	 
y(0,1,2) = 0.60	 y(1,0,2) = 0.40	 
y(0,2,2) = 0.53	 y(2,0,2) = 0.47	 
y(1,2,2) = 0.06	 y(2,1,2) = 0.94	 
6.317785420080782 4.0356610682131615 7
8.762846028112383 4.0356610682131615 7
13.317785420080781 11.035661068213162 6
obj:  1.0240524717191157
erro
[(0, 1), (1, 2), (2, 1), (1, 1), (2, 2), (0, 2)]
cliques:  0 mip: 40
C:  25.0
x(0,0) = 24.00	 x(0,1) = 5.38	 x(0,2) = 12.38	 
x(1,0) = 12.75	 x(1,1) = 8.75	 x(1,2) = 15.75	 
x(2,0) = 22.00	 x(2,1) = 4.62	 x(2,2) = 14.30	 
y(0,1,0) = 0.00	 y(1,0,0) = 1.00	 
y(0,2,0) = 0.00	 y(2,0,0) = 1.00	 
y(1,2,0) = 0.99	 y(2,1,0) = 0.01	 
y(0,1,1) = 0.70	 y(1,0,1) = 0.30	 
y(0,2,1) = 0.66	 y(2,0,1) = 0.34	 
y(1,2,1) = 0.15	 y(2,1,1) = 0.85	 
y(0,1,2) = 0.85	 y(1,0,2) = 0.15	 
y(0,2,2) = 0.66	 y(2,0,2) = 0.34	 
y(1,2,2) = 0.25	 y(2,1,2) = 0.75	 
5.381747408827097 4.618242110080714 7
8.750018341911328 4.618242110080714 7
15.75001834191133 14.298751850837785 6
obj:  1.0
erro
[(0, 1), (1, 2), (2, 1), (1, 1), (2, 2), (0, 2)]
cliques:  0 mip: 40
C:  25.0
x(0,0) = 24.00	 x(0,1) = 4.73	 x(0,2) = 11.73	 
x(1,0) = 12.87	 x(1,1) = 8.87	 x(1,2) = 15.87	 
x(2,0) = 22.00	 x(2,1) = 5.19	 x(2,2) = 14.54	 
y(0,1,0) = 0.00	 y(1,0,0) = 1.00	 
y(0,2,0) = 0.00	 y(2,0,0) = 1.00	 
y(1,2,0) = 0.99	 y(2,1,0) = 0.01	 
y(0,1,1) = 0.70	 y(1,0,1) = 0.30	 
y(0,2,1) = 0.72	 y(2,0,1) = 0.28	 
y(1,2,1) = 0.22	 y(2,1,1) = 0.78	 
y(0,1,2) = 0.89	 y(1,0,2) = 0.11	 
y(0,2,2) = 0.75	 y(2,0,2) = 0.25	 
y(1,2,2) = 0.24	 y(2,1,2) = 0.76	 
8.874077092078455 5.1945588272432275 7
15.874077092078451 14.543510799622018 6
obj:  1.0
erro
[(0, 1), (1, 2), (2, 1), (1, 1), (2, 2), (0, 2)]
cliques:  0 mip: 0
iterações: 25 cortes cliques encontrados: 3 mip: 1011 objective:  25.0
Coin0506I Presolve 65 (-61) rows, 39 (-25) columns and 202 (-86) elements
Clp1000I sum of infeasibilities 3.24924e-06 - average 4.99884e-08, 0 fixed columns
Coin0506I Presolve 65 (0) rows, 39 (0) columns and 202 (0) elements
Clp0029I End of values pass after 39 iterations
Clp0000I Optimal - objective value 15
Clp0000I Optimal - objective value 15
Coin0511I After Postsolve, objective 15, infeasibilities - dual 0 (0), primal 0 (0)
Clp0000I Optimal - objective value 15
Clp0000I Optimal - objective value 15
Clp0000I Optimal - objective value 15
Coin0511I After Postsolve, objective 15, infeasibilities - dual 0 (0), primal 0 (0)
Clp0032I Optimal objective 15 - 0 iterations time 0.002, Presolve 0.00, Idiot 0.00
Coin3009W Conflict graph built in 0.000 seconds, density: 0.147%
